0 0 0 0
0 1 2 0
0 2 0 0
0 3 2 0
0 4 2 1
0 5 0 10
0 6 1 10
0 7 0 15
0 8 0 10
0 9 2 11
0 10 2 9
0 11 1 17
0 12 0 19
0 13 2 23
0 14 2 12
0 15 2 23
0 16 0 20
0 17 2 19
0 18 2 23
0 19 2 11
0 20 2 20
0 21 2 21
0 22 1 29
0 23 2 30
0 24 2 30
0 25 1 34
0 26 0 34
0 27 0 38
0 28 1 39
0 29 0 38
0 30 0 40
0 31 0 41
